GLPSOL: GLPK LP/MIP Solver, v4.55
Parameter(s) specified in the command line:
 -m tmp.mod
Reading model section from tmp.mod...
Reading data section from tmp.mod...
8551 lines were read
Generating obj...
Generating kirhoff...
Generating init_charge...
Generating batt_size...
Model has been successfully generated
GLPK Simplex Optimizer, v4.55
11155 rows, 17103 columns, 37548 non-zeros
Preprocessing...
8734 rows, 16813 columns, 36974 non-zeros
Scaling...
 A: min|aij| =  1.000e+00  max|aij| =  1.000e+00  ratio =  1.000e+00
Problem data seem to be well scaled
Constructing initial basis...
Size of triangular part is 7596
      0: obj =   0.000000000e+00  infeas =  8.195e+03 (1138)
    500: obj =   0.000000000e+00  infeas =  6.456e+03 (1032)
   1000: obj =   1.300000000e+01  infeas =  6.002e+03 (914)
   1500: obj =   1.220000000e+02  infeas =  4.211e+03 (866)
   2000: obj =   3.170000000e+02  infeas =  1.257e+03 (817)
   2500: obj =   5.936666667e+02  infeas =  9.100e+01 (801)
*  2708: obj =   6.175454545e+02  infeas =  0.000e+00 (793)
*  3000: obj =   4.440000000e+02  infeas =  0.000e+00 (773)
*  3500: obj =   2.110000000e+02  infeas =  0.000e+00 (760)
*  3908: obj =   1.120000000e+02  infeas =  0.000e+00 (745)
OPTIMAL LP SOLUTION FOUND
Time used:   2.4 secs
Memory used: 33.3 Mb (34924037 bytes)
#OUTPUT:
112
-17 0 -4 -4 -27 -12 -4 -18 -6 0 0 -10 -1 0 -5 -16 3 3 0 0 0 0 0 0 -6 0 0 6 0 0 -6 0 0 0 -16 -7 0 0 -7 0 0 -7 1 0 0 0 -1 0 0 0 0 0 0 0 0 0 0 0 0 0 0 0 -7 0 0 0 -5 0 0 0 0 -5 0 0 0 0 0 0 0 0 0 0 0 0 0 0 0 0 0 0 -3 0 0 0 0 0 0 0 0 0 0 0 0 0 0 0 0 0 0 -5 0 0 0 0 -1 0 0 0 0 0 0 0 0 0 0 0 0 0 0 0 0 0 0 0 0 0 0 0 0 0 -16 0 0 0 16 0 0 0 0 0 0 0 0 0 0 0 0 0 0 0 0 0 0 0 0 0 0 1 0 0 0 0 -2 0 0 0 0 1 0 0 0 0 3 0 0 0 0 0 -1 0 0 0 0 0 0 0 0 10 0 0 0 0 0 0 0 0 3 0 0 0 0 0 0 0 0 0 0 0 0 0 0 1 0 0 0 0 0 -2 0 0 0 0 0 0 0 0 0 0 0 0 0 0 0 0 0 0 0 0 0 -26 0 0 0 -7 0 0 0 -1 0 0 0 0 0 0 0 0 7 0 0 0 0 0 0 0 0 0 0 0 0 0 0 0 10 0 0 0 0 0 0 0 0 0 0 0 0 0 0 0 0 0 0 0 0 0 0 0 0 0 0 0 0 0 0 0 0 0 0 0 0 0 0 0 0 0 0 0 0 0 0 0 -2 0 0 0 0 0 5 1 0 5 7 1 0 0 0 0 0 0 0 0 0 -16 0 0 0 0 -1 0 -1 0 0 -1 0 0 0 0 0 0 0 0 0 -3 0 0 0 -1 0 0 0 0 0 0 0 0 0 0 26 7 1 0 0 0 0 0 -7 0 0 0 0 0 -10 0 0 0 0 0 0 0 0 0 0 0 0 0 2 0 0 0 0 0 0 0 0 0 0 0 0 0 0 0 0 0 0 0 0 0 0 0 0 0 0 0 0 0 0 0 0 0 0 0 0 0 0 0 0 0 0 0 0 0 0 0 0 0 0 0 0 0 0 0 0 0 0 0 0 0 0 0 0 0 0 0 0 0 0 0 0 0 0 0 0 0 0 0 0 0 0 
-8 0 -8 -3 -11 -35 -3 0 6 0 0 -26 0 0 0 0 0 0 0 0 0 0 0 0 6 0 0 -11 -26 0 0 0 0 -6 0 -26 -4 0 0 0 0 0 0 0 0 -6 0 0 -5 0 0 0 0 0 -4 0 0 0 0 0 0 0 -10 0 0 0 0 0 0 0 0 -4 0 0 0 6 0 0 0 0 3 0 -5 0 0 0 0 0 0 0 0 0 0 0 0 0 0 0 0 0 0 2 0 0 -1 3 -15 0 11 0 0 -15 0 0 0 -3 0 0 0 0 0 0 0 0 0 0 0 0 0 0 0 0 0 0 0 0 0 0 0 0 0 0 0 0 0 0 0 0 0 3 0 0 0 0 -4 0 0 0 -61 0 0 -2 0 0 0 0 0 0 0 6 0 0 -9 0 0 0 0 0 0 0 0 0 0 0 0 0 0 0 -10 0 0 0 0 0 0 0 0 7 0 0 0 0 0 0 0 0 0 0 0 0 0 0 0 0 0 0 0 0 0 0 0 0 0 0 0 0 0 -9 0 0 0 0 0 0 0 0 0 0 0 0 0 0 0 0 0 0 0 0 0 -11 0 0 0 0 0 0 0 0 0 -6 0 0 0 0 0 0 26 0 0 0 0 0 0 0 0 0 0 0 0 0 0 0 7 0 0 0 0 0 0 0 0 0 0 0 0 0 0 0 0 0 0 0 0 0 0 0 0 0 0 0 0 0 0 0 0 0 7 0 0 0 0 -5 0 0 0 0 0 0 0 0 -9 0 0 0 -2 0 0 0 0 0 1 2 0 0 0 0 0 0 0 0 0 0 0 0 0 0 0 0 0 0 0 0 0 11 0 0 0 0 0 0 0 0 0 0 0 0 0 0 0 0 0 0 0 0 0 0 11 0 0 6 0 0 0 0 -26 0 0 0 0 0 -7 0 0 0 0 0 0 0 0 -2 0 0 5 0 9 2 0 0 0 0 0 0 0 0 0 0 0 0 0 0 0 0 0 0 0 0 0 0 0 0 0 0 0 0 0 0 0 0 0 0 0 0 0 0 0 0 0 0 0 0 0 0 0 0 0 0 0 0 0 0 0 0 0 0 0 0 0 0 0 0 0 0 0 0 0 0 0 0 0 0 0 0 0 0 0 0 0 
-27 0 -27 0 0 -4 0 0 -3 0 0 0 0 -2 0 0 0 0 0 0 0 0 0 0 -3 0 0 -22 0 0 -3 0 0 0 0 0 -4 0 -3 0 0 0 0 0 0 0 0 0 0 0 0 0 0 0 -4 0 0 0 0 0 0 0 0 -2 0 0 0 0 0 0 0 -2 0 0 0 0 0 0 0 0 0 0 -11 0 0 0 0 0 0 0 0 0 0 0 0 0 0 0 0 0 0 4 0 0 3 0 0 0 0 0 0 0 0 0 0 0 0 0 0 0 0 0 0 0 0 0 0 0 0 0 -3 0 -2 0 0 0 0 0 0 0 0 0 0 0 -18 0 0 0 0 0 0 0 0 0 -2 0 0 0 0 0 0 0 0 0 0 0 0 0 0 0 0 0 -4 0 0 0 0 0 0 0 0 0 0 0 0 0 0 0 -1 0 0 0 0 0 0 0 0 0 0 0 0 0 0 0 0 0 0 0 0 0 0 0 0 0 0 0 0 0 0 0 0 0 0 0 0 0 0 -4 0 0 0 0 0 0 0 0 0 0 0 0 0 0 0 0 0 0 0 0 0 0 0 0 0 0 0 0 0 0 0 0 0 0 0 0 0 0 0 0 -2 0 0 0 0 0 0 0 0 0 0 0 0 0 0 0 0 0 0 0 0 0 0 0 0 0 0 0 0 -2 0 0 0 0 0 0 0 0 0 0 0 0 0 0 -18 0 0 0 0 0 0 0 0 0 0 0 0 0 0 0 0 0 -4 0 0 0 -2 0 0 0 0 0 0 4 0 0 0 0 0 0 0 0 0 0 0 0 0 0 0 0 0 0 0 0 0 0 0 0 0 0 0 0 0 0 0 0 0 0 0 0 0 0 0 0 0 0 0 0 0 0 0 0 0 0 0 0 0 0 0 0 0 0 0 0 0 0 0 0 2 0 0 0 0 0 0 0 4 2 0 0 0 0 0 0 0 0 0 0 0 0 0 0 0 0 0 0 0 0 0 0 0 0 0 0 0 0 0 0 0 0 0 0 0 0 0 0 0 0 0 0 0 0 0 0 0 0 0 0 0 0 0 0 0 0 0 0 0 0 0 0 0 0 0 0 0 0 0 0 0 0 0 0 0 0 0 0 0 0 0 
-65 0 -48 -4 0 -52 -4 -13 0 0 0 -52 0 2 -4 -13 0 0 0 0 0 -4 0 0 0 0 0 -46 -3 0 0 0 0 0 -6 0 0 0 0 0 0 0 0 0 0 0 0 0 -3 0 0 0 0 0 0 0 0 0 0 0 0 0 0 0 0 0 0 0 -4 0 0 0 0 0 0 0 -4 0 0 0 -4 0 0 0 0 0 0 0 0 0 -56 0 0 0 0 0 0 0 0 0 -3 0 2 0 0 -8 0 0 0 0 0 0 0 0 0 0 0 0 0 0 0 0 0 0 0 29 0 0 0 0 0 0 0 0 0 0 0 0 0 -4 -6 0 0 0 -29 0 0 -4 0 -8 4 0 0 0 0 0 0 0 0 0 0 0 0 0 0 0 0 0 0 0 0 0 0 0 0 0 0 0 0 0 0 0 0 0 0 0 0 0 0 0 0 0 0 0 0 0 0 17 0 0 0 0 0 0 0 0 0 0 0 0 0 0 4 0 0 0 0 0 0 0 0 0 0 0 0 0 0 0 0 0 0 0 0 0 0 0 0 0 0 0 0 0 0 0 0 0 0 0 0 0 0 0 0 0 0 0 -4 0 0 0 0 0 0 0 0 0 0 0 0 -4 0 0 0 0 0 0 0 0 0 0 0 0 17 0 0 0 0 0 0 0 0 0 0 0 0 0 0 0 0 0 0 0 0 0 4 0 0 0 0 0 0 0 0 0 0 4 0 0 0 0 0 0 0 0 0 0 0 0 0 0 0 0 0 0 0 0 0 0 0 0 0 0 0 0 0 -29 0 0 -7 0 0 29 0 0 0 0 0 0 0 0 0 0 0 0 0 0 0 0 0 0 0 0 0 -4 0 0 0 0 0 0 0 0 0 0 0 0 0 0 0 0 0 0 0 0 0 4 0 0 0 0 -17 0 0 0 0 0 0 0 -4 0 0 0 0 0 0 0 0 0 0 0 0 0 0 0 0 0 0 0 0 0 0 0 0 0 0 0 0 0 0 0 0 0 0 0 0 0 0 0 0 0 0 0 0 0 0 0 0 0 0 0 0 0 0 0 0 0 0 0 0 0 0 0 0 0 0 0 0 0 0 0 0 0 0 0 0 0 0 0 0 0 0 0 0 0 0 0 0 
-22 0 -16 0 0 0 -6 0 0 0 0 0 0 -2 0 0 0 0 0 0 0 0 0 0 0 0 0 -14 -4 0 0 0 0 -4 0 0 -4 0 0 0 0 0 0 0 0 -4 0 -14 0 0 0 0 0 0 0 0 0 10 0 0 0 8 -6 0 0 0 0 0 -2 -4 0 0 0 0 0 0 -2 0 2 0 -2 0 0 0 0 0 0 0 0 0 0 0 0 0 0 0 0 0 0 0 0 0 -2 0 0 -4 0 -6 0 0 0 0 0 0 4 0 0 0 0 0 0 0 0 0 0 10 0 0 0 0 0 0 0 0 0 2 0 0 0 0 0 0 0 0 -10 0 0 0 0 -4 2 0 0 0 0 0 8 0 0 0 0 0 0 0 -2 0 0 0 0 0 0 0 0 0 0 0 0 0 0 0 0 0 0 0 0 0 0 0 0 0 0 0 0 0 0 0 0 0 0 0 0 0 0 0 0 0 0 0 0 0 0 0 0 0 0 0 0 0 0 0 0 0 0 0 0 0 0 0 0 0 0 0 0 0 0 0 0 0 0 0 0 0 0 0 0 0 0 0 0 0 0 0 0 0 0 0 -10 0 0 0 0 0 0 0 0 0 0 0 0 0 0 0 0 0 0 0 0 0 -2 0 0 0 0 0 0 0 0 0 0 0 0 0 0 0 0 0 0 0 0 0 0 0 0 0 2 0 0 0 0 0 0 0 0 0 0 2 0 0 0 0 0 0 0 0 0 0 0 0 0 0 0 0 0 0 0 0 0 0 6 0 0 0 0 2 -2 -10 0 0 0 0 10 0 0 0 -8 2 0 0 0 0 0 0 0 0 0 0 0 0 0 0 0 0 0 0 0 0 0 0 0 0 0 0 0 0 0 0 0 0 0 0 0 0 0 0 0 0 0 0 2 0 0 0 0 0 0 -4 4 0 -2 0 0 0 0 0 0 0 0 0 0 0 0 0 0 0 0 0 0 0 0 0 0 0 0 0 0 0 0 0 0 0 0 0 0 0 0 0 0 0 0 0 0 0 0 0 0 0 0 0 0 0 0 0 0 0 0 0 0 0 0 0 0 0 0 0 0 0 0 0 0 0 0 0 0 0 0 0 0 0 0 0 0 0 0 0 0 0 0 
-38 0 -13 -4 -20 -66 -8 -18 -7 -2 -6 -66 -20 -2 -9 -16 -1 -1 0 0 0 0 0 2 -1 0 0 0 -16 0 -7 0 0 -8 9 0 0 0 -7 -4 -2 -16 2 0 0 -8 -20 0 -8 0 -4 0 0 0 0 0 0 0 0 -8 0 0 -10 0 0 0 -5 0 0 0 0 0 6 0 0 6 0 0 0 0 0 4 0 -32 0 0 0 0 0 0 1 -1 0 0 0 0 0 0 0 0 -5 0 2 0 0 0 0 -6 -5 0 0 0 0 0 1 0 0 0 0 0 0 0 0 0 0 0 0 0 0 -34 3 0 0 0 0 0 0 0 0 -1 9 0 0 0 0 0 -6 -4 0 0 0 0 0 0 0 0 0 0 0 0 0 0 0 0 0 0 0 27 0 8 0 0 0 0 0 4 0 -2 0 0 0 0 -1 0 0 0 0 0 6 -2 0 0 0 0 0 0 0 0 0 0 0 0 0 0 0 0 -1 0 0 0 0 0 4 0 0 0 0 0 0 0 0 0 0 0 0 0 0 0 0 0 0 0 0 0 0 0 0 0 0 0 0 2 0 0 0 0 0 0 0 0 0 0 0 0 0 0 0 0 0 -8 0 0 0 0 1 0 0 0 0 -4 0 -7 0 0 0 0 0 0 0 0 0 0 0 0 0 0 0 0 0 0 0 -8 0 0 0 0 0 0 0 0 0 0 0 0 0 0 0 0 0 0 0 0 0 0 0 0 3 0 2 0 0 -3 0 0 0 0 0 0 0 0 0 0 0 0 0 0 5 6 6 0 0 0 0 -21 21 0 63 -3 -9 0 0 0 0 6 0 -25 0 0 -25 3 0 2 0 -5 0 0 0 0 0 0 0 1 0 -4 0 0 0 0 0 -2 0 0 0 0 0 0 0 0 0 8 -1 0 0 0 0 4 7 0 0 0 0 0 0 0 8 0 0 0 0 0 0 -2 3 0 0 0 0 0 0 0 0 0 0 0 0 0 0 0 0 0 0 0 0 0 0 0 0 0 0 0 0 0 0 0 0 0 0 0 0 0 0 0 0 0 0 0 0 0 0 0 0 0 0 0 0 0 0 0 0 0 0 0 0 0 0 0 0 0 0 0 0 0 0 0 0 0 0 0 0 0 0 0 0 0 0 0 0 
-28 -2 -5 -1 -11 -9 0 -10 -7 -1 -7 0 0 2 -35 -9 0 0 0 -3 0 0 0 7 0 0 0 1 -30 0 0 0 0 -20 -2 0 -6 0 -6 0 -1 -6 8 0 0 -17 0 0 -10 0 0 0 0 0 -4 -30 -21 2 0 0 1 0 -3 0 0 0 0 28 0 0 -1 -4 0 0 -2 0 0 0 0 0 0 0 16 0 0 0 -2 -1 -1 0 0 -2 3 0 0 0 0 0 0 -1 -9 5 2 0 3 0 0 0 0 0 0 0 0 0 0 0 8 0 0 0 0 0 0 0 0 0 0 0 0 0 0 -1 0 0 0 0 0 0 0 -11 0 0 0 0 7 0 0 0 0 0 0 0 -2 -2 -4 0 0 0 0 0 0 0 0 0 -2 2 0 0 0 0 0 0 -9 0 0 0 -9 0 -3 17 0 0 0 0 -9 0 0 0 0 -1 0 0 0 -2 0 0 0 0 0 0 0 0 1 0 0 0 0 0 0 0 0 0 0 0 0 -2 0 0 0 0 0 -57 0 6 0 0 0 -9 0 0 0 0 0 0 35 0 0 0 0 0 6 1 0 0 0 0 0 0 0 -11 0 0 0 0 0 0 0 -1 0 0 0 0 0 0 4 0 0 0 0 0 0 0 0 0 0 0 0 0 0 0 0 17 0 0 0 0 0 -1 0 0 0 0 0 0 0 0 0 0 35 35 0 0 0 0 0 0 0 0 0 0 0 0 0 0 0 0 3 0 0 0 0 -1 0 0 0 0 0 0 0 0 -9 0 0 0 -4 -35 0 6 0 0 0 2 -3 0 0 -2 0 28 -9 1 2 -9 0 0 0 0 3 -2 1 0 9 0 9 0 0 5 0 0 0 0 -1 0 0 0 0 -1 -35 0 0 -1 0 0 0 0 8 3 0 0 1 0 -2 -2 -3 3 0 0 0 0 0 -17 0 0 1 0 0 0 0 0 0 -2 0 0 1 0 9 -2 6 35 0 0 0 0 0 0 0 0 0 0 0 0 0 0 0 0 0 0 0 0 0 0 0 0 0 0 0 0 0 0 0 0 0 0 0 0 0 0 0 0 0 0 0 0 0 0 0 0 0 0 0 0 0 0 0 0 0 0 0 0 0 0 0 0 0 0 0 0 0 0 0 0 0 0 0 0 0 0 0 
0 0 -2 0 -17 -32 0 0 0 0 6 -32 -20 -2 -35 0 0 0 0 0 0 0 0 0 -6 0 0 0 -13 0 -5 0 0 -3 0 -32 -26 0 -7 -4 0 -11 0 0 0 -3 -20 0 -10 0 61 0 0 0 4 3 26 -6 0 0 -1 -8 0 0 0 0 -4 0 0 0 0 -4 4 0 0 -1 0 0 0 0 0 0 -16 0 0 0 3 0 0 0 0 0 0 0 0 0 0 0 0 3 -9 -5 2 -1 -1 -7 0 0 -5 0 0 0 0 0 -15 0 0 0 0 -6 0 0 0 0 0 -8 4 0 0 0 0 0 0 0 0 6 0 0 1 2 0 0 0 0 15 4 -4 0 0 -7 7 0 0 0 -4 32 -8 0 0 0 0 5 0 0 -2 0 0 -20 3 1 0 0 0 0 0 0 9 -3 0 2 0 0 0 0 -4 0 0 0 5 0 0 0 0 0 0 0 0 -11 0 0 0 0 0 0 0 0 0 0 0 0 0 0 0 0 -56 -8 0 0 0 0 0 -1 0 12 0 0 0 0 0 0 32 0 0 0 28 0 0 0 0 -3 11 0 0 0 0 -32 0 0 0 3 0 0 0 0 0 0 -7 1 0 -1 0 0 0 0 8 0 0 0 -3 0 0 0 3 0 0 0 0 0 -6 0 0 2 -11 -2 0 0 0 1 0 1 0 0 0 0 0 0 0 -3 28 28 0 0 0 0 7 0 0 0 0 0 0 0 0 0 0 7 0 0 0 0 0 -5 0 0 0 0 -3 0 0 0 0 0 0 0 -9 -28 0 6 0 0 0 -2 0 -29 35 0 -17 0 -9 0 -6 -9 -4 4 8 25 -3 0 20 0 -9 3 4 -5 0 0 0 0 0 0 0 0 0 0 0 0 -31 0 3 0 0 0 32 0 3 12 -18 0 -1 1 0 -8 0 0 0 0 0 -3 6 -2 11 2 -1 -1 0 23 -20 0 -7 5 0 0 5 3 0 -2 11 28 0 0 0 0 0 0 0 0 0 0 0 0 0 0 0 0 0 0 0 0 0 0 0 0 0 0 0 0 0 0 0 0 0 0 0 0 0 0 0 0 0 0 0 0 0 0 0 0 0 0 0 0 0 0 0 0 0 0 0 0 0 0 0 0 0 0 0 0 0 0 0 0 0 0 0 0 0 0 0 
-9 0 -12 -4 -27 0 0 -18 -2 0 0 0 7 -2 -5 -10 0 0 0 0 0 0 -8 7 -2 0 0 -4 -53 0 0 0 0 -5 0 0 0 0 -6 -2 0 -6 8 0 0 -13 7 0 5 0 -2 0 0 0 0 0 0 0 0 2 0 0 0 0 0 0 -5 0 0 0 -4 -4 0 0 0 -2 0 0 0 0 0 0 0 -2 0 0 0 -4 -4 0 0 0 0 0 0 0 0 0 -8 0 0 0 0 1 0 0 -53 4 -7 0 0 -53 0 0 0 0 0 0 0 -6 0 0 0 0 0 0 0 0 0 0 0 0 0 0 0 6 0 0 -1 17 0 0 0 0 0 0 0 0 0 0 0 0 0 0 -4 0 0 0 0 0 0 -5 0 0 0 0 0 0 0 -4 0 0 0 0 0 0 9 0 0 17 0 0 0 0 0 0 0 0 6 0 0 0 0 0 0 0 0 4 0 -8 0 0 0 0 0 0 0 0 0 0 0 0 0 0 0 0 0 0 0 0 0 0 0 0 0 0 0 0 0 0 0 0 0 0 0 0 0 0 0 0 -1 0 0 0 0 0 0 -64 0 -34 0 0 0 -9 0 0 0 0 0 4 0 0 0 0 0 0 0 0 0 0 0 0 0 0 0 0 0 0 -6 0 0 17 4 0 0 0 0 0 0 -1 0 2 0 0 0 0 0 0 0 0 0 0 0 0 0 0 0 0 0 0 0 0 0 0 0 0 0 0 -2 0 0 5 0 0 0 0 0 0 0 0 0 0 0 0 1 0 5 6 -4 0 12 0 0 7 -1 0 0 0 0 0 0 0 0 0 0 0 0 0 0 0 -9 0 0 -7 0 0 0 0 0 8 0 0 0 0 0 -1 0 0 0 0 0 0 0 -34 8 0 26 9 0 -4 0 0 0 0 0 0 0 0 6 -17 -4 0 0 1 -2 0 0 0 0 -5 0 2 -5 0 0 0 -1 0 0 0 0 0 0 0 0 0 0 0 0 0 0 0 0 0 0 0 0 0 0 0 0 0 0 0 0 0 0 0 0 0 0 0 0 0 0 0 0 0 0 0 0 0 0 0 0 0 0 0 0 0 0 0 0 0 0 0 0 0 0 0 0 0 0 0 0 0 0 0 0 0 0 0 0 0 0 0 0 
-24 0 -24 0 -30 0 0 0 0 0 0 0 -15 2 -35 0 0 0 0 0 0 0 0 0 0 0 0 -26 -27 0 0 0 0 0 0 0 -26 0 0 5 0 0 1 0 0 0 -15 0 0 0 5 0 0 0 -1 0 37 0 0 0 0 0 0 -3 0 0 0 0 0 0 0 0 0 0 0 0 0 0 0 0 0 0 -41 0 -43 0 0 0 0 0 0 0 0 0 0 0 0 0 0 0 0 0 0 -1 3 0 -27 0 -2 0 0 -27 0 0 -15 0 0 0 -49 -4 0 0 0 0 0 0 0 0 0 0 0 0 -3 0 0 0 0 0 1 0 0 0 4 0 0 0 0 0 0 0 0 0 0 0 0 0 0 0 0 0 0 0 0 0 0 0 0 0 0 0 0 0 0 0 0 0 -4 -3 0 0 0 0 0 0 0 0 0 0 3 0 0 0 0 0 0 0 0 0 0 0 0 0 0 0 0 0 0 0 0 0 0 0 0 0 0 0 0 0 0 0 0 1 0 0 0 0 0 0 0 0 0 0 0 0 35 0 0 0 0 -3 0 0 0 0 0 0 0 0 0 -15 0 0 0 0 0 0 0 -1 0 0 0 0 0 0 0 0 0 0 -6 0 0 0 0 0 0 0 0 0 0 0 0 0 0 0 0 0 0 0 0 1 0 0 0 0 0 -43 0 -6 35 35 0 0 0 0 0 0 0 0 0 0 0 0 0 0 0 0 0 -43 0 0 0 0 0 0 0 0 0 0 0 0 0 0 0 0 0 -35 0 0 0 0 13 0 0 0 4 0 3 0 0 -4 0 0 0 0 0 0 0 0 0 0 4 3 0 -2 0 0 0 0 0 0 0 0 0 0 0 -1 -35 0 3 0 0 0 0 0 4 0 11 0 1 0 0 0 0 0 0 0 0 0 0 0 0 0 0 -1 0 18 -12 0 0 0 0 0 0 0 0 0 0 35 0 0 0 0 0 0 0 0 0 0 0 0 0 0 0 0 0 0 0 0 0 0 0 0 0 0 0 0 0 0 0 0 0 0 0 0 0 0 0 0 0 0 0 0 0 0 0 0 0 0 0 0 0 0 0 0 0 0 0 0 0 0 0 0 0 0 0 0 0 0 0 0 0 0 0 0 0 0 0 
-64 0 -44 -2 -34 0 0 -18 -6 -2 0 0 0 -2 0 -16 0 0 0 0 0 0 8 5 -6 1 0 -34 0 0 0 0 6 -5 32 0 -5 0 -1 0 -2 -1 5 0 0 -1 0 0 0 0 0 1 0 6 -2 -5 -6 0 0 -8 0 -6 0 0 0 0 0 4 0 0 0 -3 0 0 0 -6 0 0 0 0 0 0 8 32 0 0 -3 0 0 0 0 0 0 0 0 0 0 0 2 -4 0 -3 -2 0 -1 0 5 0 0 0 0 5 0 0 0 0 0 0 0 0 0 0 0 0 0 0 0 0 0 24 0 1 0 0 0 0 1 0 0 -2 29 0 0 0 -29 0 0 0 0 0 0 0 0 0 -3 6 -6 0 0 0 0 -3 0 0 0 -3 0 5 0 1 0 0 0 0 0 0 -9 -3 -2 0 0 0 0 0 10 0 0 0 0 -2 0 0 1 0 0 0 0 0 1 2 0 0 -1 0 0 0 0 0 0 0 0 0 0 0 0 0 0 0 0 0 0 0 0 0 0 0 0 0 6 0 6 0 0 0 0 0 0 0 0 0 0 2 0 0 0 0 0 0 0 -34 0 0 0 0 0 0 0 0 0 -1 0 0 0 0 0 0 0 0 0 0 0 -2 0 0 0 0 0 0 0 0 0 0 0 1 0 0 0 0 0 0 0 -8 0 0 0 0 0 0 -6 -6 0 0 0 0 0 0 0 0 0 0 0 0 0 0 0 0 0 0 8 0 0 0 0 0 0 0 0 0 0 0 0 0 0 0 0 6 0 1 0 0 9 0 0 0 0 0 -16 2 0 -1 0 29 0 0 6 0 -3 3 -3 2 9 3 -9 0 0 0 1 0 -1 -2 1 0 0 0 0 0 0 0 0 -2 0 -6 6 0 8 0 26 0 0 1 0 0 -1 1 0 0 2 0 0 0 0 -4 0 0 8 0 0 0 0 0 0 -8 0 0 0 0 0 -6 0 0 0 0 0 0 0 0 0 0 0 0 0 0 0 0 0 0 0 0 0 0 0 0 0 0 0 0 0 0 0 0 0 0 0 0 0 0 0 0 0 0 0 0 0 0 0 0 0 0 0 0 0 0 0 0 0 0 0 0 0 0 0 0 0 0 0 0 0 0 0 0 0 0 0 0 0 0 0 
-9 0 0 0 -34 -30 0 -9 0 0 0 -30 8 0 0 -5 0 0 8 -3 0 0 0 5 0 0 0 0 0 0 0 0 0 0 0 -30 0 0 0 0 0 0 5 0 0 0 0 0 0 0 0 0 0 0 0 0 0 0 0 -16 0 0 0 0 0 0 0 3 0 0 0 -4 0 0 0 0 0 0 0 0 0 0 0 -5 0 0 0 0 0 0 0 -2 11 0 0 0 0 0 0 0 0 0 0 0 0 0 0 0 0 0 0 0 0 0 -30 0 3 0 0 0 0 0 0 0 0 27 0 0 0 -5 0 0 0 0 0 0 0 0 0 0 0 0 0 0 0 0 0 0 0 0 0 0 0 0 -4 30 0 0 0 0 0 0 0 0 0 0 0 0 0 0 0 0 0 0 0 0 -9 -3 0 0 0 0 0 0 -1 0 0 0 0 0 0 0 0 0 0 0 0 0 0 0 0 0 0 0 0 0 0 0 0 0 0 0 0 0 0 -6 0 0 0 0 0 0 -40 2 0 0 0 0 0 0 30 0 0 0 0 0 0 0 0 0 2 0 0 0 0 -30 0 0 0 7 0 0 0 -1 0 0 0 0 0 0 0 0 0 0 8 0 0 0 0 0 0 -3 0 0 0 0 0 0 0 0 0 0 0 0 0 0 0 0 0 0 0 8 0 0 0 0 0 0 0 0 0 0 0 0 0 0 0 0 0 0 0 0 0 0 0 0 0 0 0 0 0 0 0 0 0 0 0 0 0 0 0 0 0 0 -4 0 0 0 0 0 1 0 -3 0 0 -33 8 0 0 0 0 0 0 0 0 0 0 0 0 3 9 3 -6 0 0 0 0 0 0 0 0 0 0 0 0 0 0 0 0 0 0 0 30 0 8 -16 1 1 0 0 -2 -6 0 0 0 0 3 0 0 0 0 0 0 0 -8 0 0 0 0 0 0 0 0 0 0 2 2 0 0 0 0 0 0 0 0 0 0 0 0 0 0 0 0 0 0 0 0 0 0 0 0 0 0 0 0 0 0 0 0 0 0 0 0 0 0 0 0 0 0 0 0 0 0 0 0 0 0 0 0 0 0 0 0 0 0 0 0 0 0 0 0 0 0 0 0 0 0 0 0 0 0 0 0 0 0 0 0 
-5 0 0 0 -4 0 0 -5 0 0 0 0 0 0 0 -1 0 0 0 0 0 0 0 4 0 0 0 0 0 0 0 0 0 0 0 0 0 0 0 0 0 0 4 0 0 0 0 0 0 0 0 0 0 0 0 0 0 0 0 0 0 0 0 0 0 0 0 0 0 0 -4 0 0 0 0 0 0 0 0 0 0 0 0 0 0 0 0 -4 -4 0 0 0 0 0 0 0 0 0 0 0 0 0 0 0 0 0 0 0 0 0 0 0 0 0 0 0 0 0 0 0 0 0 0 0 0 0 0 0 0 0 0 0 0 0 0 0 0 0 0 0 0 0 0 0 0 0 0 0 0 0 0 0 0 0 0 0 0 0 0 0 0 0 0 0 0 0 0 0 0 0 0 0 0 0 0 0 4 0 0 0 0 0 0 0 0 0 0 0 0 0 0 0 0 0 0 0 0 0 0 0 0 0 0 0 0 0 0 0 0 0 0 0 0 0 0 0 0 0 0 0 0 0 0 0 0 0 0 0 0 0 0 0 0 0 0 0 0 0 0 0 0 0 0 0 0 0 0 0 0 -4 0 0 0 0 0 0 0 0 0 0 0 0 0 0 0 0 0 0 0 0 0 0 0 0 0 0 0 0 0 0 0 0 0 0 0 0 0 0 0 0 0 0 0 0 0 0 0 0 0 0 0 0 0 0 0 0 0 0 0 0 0 0 0 0 0 0 0 0 0 0 0 0 0 0 0 0 0 0 0 0 0 0 0 0 0 0 0 0 0 0 0 0 0 0 0 0 0 0 0 0 0 0 0 0 0 0 0 0 0 0 -4 0 0 0 0 0 0 0 0 0 0 0 0 0 0 0 0 0 0 0 0 0 0 0 4 0 0 0 0 0 0 0 0 0 0 0 0 0 0 0 0 0 0 0 0 0 0 0 0 0 0 0 0 0 0 0 0 0 0 0 0 0 0 0 0 0 0 0 0 0 0 0 0 0 0 0 0 0 0 0 0 0 0 0 0 0 0 0 0 0 0 0 0 0 0 0 0 0 0 0 0 0 0 0 0 0 0 0 0 0 0 0 0 0 0 0 0 0 0 0 0 0 0 0 0 0 0 0 0 0 0 0 0 0 0 0 0 
-20 -3 0 0 0 0 0 0 0 0 0 0 0 0 0 0 0 0 0 0 0 0 -1 0 0 0 0 0 -43 0 0 0 0 -43 0 0 0 0 0 0 0 0 0 0 0 17 0 0 0 0 0 0 0 0 0 0 0 0 0 0 0 0 0 0 0 0 0 0 0 0 0 0 0 0 -3 0 0 0 0 0 0 0 0 0 0 0 0 0 0 0 0 0 0 0 0 0 0 0 -1 0 0 0 0 0 0 0 0 0 0 0 0 0 0 0 0 0 0 0 0 0 0 0 0 0 0 0 0 0 0 0 0 0 0 0 0 0 0 0 0 -17 0 0 0 0 0 0 0 0 0 0 0 0 -3 -3 0 0 0 0 0 0 0 0 0 0 0 0 0 0 0 0 0 0 0 0 0 0 0 0 3 -17 0 0 0 0 0 0 0 0 0 0 0 0 0 -3 0 0 0 0 0 -1 0 0 0 0 0 0 0 0 0 0 0 0 0 0 0 0 0 0 0 0 0 0 0 0 0 0 0 0 0 0 0 0 0 0 0 0 0 0 0 0 0 0 0 0 0 0 0 0 0 0 0 0 0 0 0 0 0 0 0 0 0 0 0 0 0 0 0 0 0 0 0 0 0 0 0 0 0 0 0 0 0 -17 0 0 0 0 0 0 0 0 0 0 0 0 0 0 0 0 0 0 0 0 0 0 0 0 0 0 0 0 0 0 0 0 0 0 0 0 0 0 0 0 0 0 0 0 0 0 0 0 0 0 0 0 0 0 0 0 0 0 0 0 0 0 0 0 0 0 0 0 0 0 0 0 0 0 0 0 0 0 0 0 0 0 0 0 0 0 0 1 0 0 0 0 0 0 0 0 0 0 0 0 0 0 0 0 0 0 0 0 0 0 3 -3 0 0 0 0 0 17 0 0 0 0 0 0 0 0 0 0 0 0 0 0 0 0 0 0 0 0 0 0 0 0 0 0 0 0 0 0 0 0 0 0 0 0 0 0 0 0 0 0 0 0 0 0 0 0 0 0 0 0 0 0 0 0 0 0 0 0 0 0 0 0 0 0 0 0 0 0 0 0 0 0 0 0 0 0 0 0 0 0 0 0 0 0 0 0 0 0 0 0 0 0 0 0 0 
0 0 0 0 0 0 0 0 0 0 0 0 0 0 0 0 0 0 0 0 0 0 0 0 0 0 0 0 0 0 0 0 0 0 0 0 0 0 0 0 0 0 0 0 0 0 0 0 0 0 0 0 0 0 0 0 0 0 0 0 0 0 0 0 0 0 0 0 0 0 0 0 0 0 0 0 0 0 0 0 0 0 0 0 0 0 0 0 0 0 0 0 0 0 0 0 0 0 0 0 0 0 0 0 0 0 0 0 0 0 0 0 0 0 0 0 0 0 0 0 0 0 0 0 0 0 0 0 0 0 0 0 0 0 0 0 0 0 0 0 0 0 0 0 0 0 0 0 0 0 0 0 0 0 0 0 0 0 0 0 0 0 0 0 0 0 0 0 0 0 0 0 0 0 0 0 0 0 0 0 0 0 0 0 0 0 0 0 0 0 0 0 0 0 0 0 0 0 0 0 0 0 0 0 0 0 0 0 0 0 0 0 0 0 0 0 0 0 0 0 0 0 0 0 0 0 0 0 0 0 0 0 0 0 0 0 0 0 0 0 0 0 0 0 0 0 0 0 0 0 0 0 0 0 0 0 0 0 0 0 0 0 0 0 0 0 0 0 0 0 0 0 0 0 0 0 0 0 0 0 0 0 0 0 0 0 0 0 0 0 0 0 0 0 0 0 0 0 0 0 0 0 0 0 0 0 0 0 0 0 0 0 0 0 0 0 0 0 0 0 0 0 0 0 0 0 0 0 0 0 0 0 0 0 0 0 0 0 0 0 0 0 0 0 0 0 0 0 0 0 0 0 0 0 0 0 0 0 0 0 0 0 0 0 0 0 0 0 0 0 0 0 0 0 0 0 0 0 0 0 0 0 0 0 0 0 0 0 0 0 0 0 0 0 0 0 0 0 0 0 0 0 0 0 0 0 0 0 0 0 0 0 0 0 0 0 0 0 0 0 0 0 0 0 0 0 0 0 0 0 0 0 0 0 0 0 0 0 0 0 0 0 0 0 0 0 0 0 0 0 0 0 0 0 0 0 0 0 0 0 0 0 0 0 0 0 0 0 0 0 0 0 0 0 0 0 0 0 0 0 0 0 0 0 0 0 0 0 0 0 0 0 0 0 0 0 0 
#OUTPUT END
Model has been successfully processed
